69
100
80	4
79	5
78	6
77	2
76	8
75	4
74	7
73	1
72	1
71	8
70	6
69	5
68	3
67	4
66	6
65	4
63	4
62	3
61	3
60	2
59	3
58	7
57	7
56	1
55	4
54	3
53	7
52	4
51	7
50	2
49	4
48	5
47	7
46	4
45	4
44	3
43	2
42	2
41	1
40	2
39	2
38	4
37	8
36	7
35	7
34	3
33	7
32	7
31	6
30	5
29	6
28	6
27	7
26	2
25	4
24	4
23	3
22	6
21	1
20	5
19	3
18	3
16	1
15	4
14	5
13	5
12	6
11	5
10	3
